(set-logic QF_LRA)
(declare-fun T1 () Real )
(declare-fun T2 () Real )
(declare-fun T3 () Real )
(declare-fun T4 () Real )
(declare-fun T5 () Real )
(declare-fun T6 () Real )
(declare-fun T7 () Real )
(declare-fun T8 () Real )
(declare-fun Z () Real )
(assert ( and 
(or ( <= ( + T1 93 ) T2 ) ( <= ( + T2 61 ) T1 ) )
(or ( <= ( + T1 100 )  ( + T2 61 ) ) ( <= ( + T2 67 )( + T1 93 ) ) )
(or ( <= ( + T1 113 )  ( + T2 67 ) ) ( <= ( + T2 112 )( + T1 100 ) ) )
(or ( <= ( + T1 148 )  ( + T2 112 ) ) ( <= ( + T2 190 )( + T1 113 ) ) )
(or ( <= ( + T1 238 )  ( + T2 190 ) ) ( <= ( + T2 245 )( + T1 148 ) ) )
(or ( <= ( + T1 282 )  ( + T2 245 ) ) ( <= ( + T2 279 )( + T1 238 ) ) )
(or ( <= ( + T1 93 ) T3 ) ( <= ( + T3 50 ) T1 ) )
(or ( <= ( + T1 100 )  ( + T3 50 ) ) ( <= ( + T3 96 )( + T1 93 ) ) )
(or ( <= ( + T1 113 )  ( + T3 96 ) ) ( <= ( + T3 113 )( + T1 100 ) ) )
(or ( <= ( + T1 148 )  ( + T3 113 ) ) ( <= ( + T3 158 )( + T1 113 ) ) )
(or ( <= ( + T1 238 )  ( + T3 158 ) ) ( <= ( + T3 192 )( + T1 148 ) ) )
(or ( <= ( + T1 282 )  ( + T3 192 ) ) ( <= ( + T3 256 )( + T1 238 ) ) )
(or ( <= ( + T1 93 ) T4 ) ( <= ( + T4 85 ) T1 ) )
(or ( <= ( + T1 100 )  ( + T4 85 ) ) ( <= ( + T4 165 )( + T1 93 ) ) )
(or ( <= ( + T1 113 )  ( + T4 165 ) ) ( <= ( + T4 256 )( + T1 100 ) ) )
(or ( <= ( + T1 148 )  ( + T4 256 ) ) ( <= ( + T4 272 )( + T1 113 ) ) )
(or ( <= ( + T1 238 )  ( + T4 272 ) ) ( <= ( + T4 365 )( + T1 148 ) ) )
(or ( <= ( + T1 282 )  ( + T4 365 ) ) ( <= ( + T4 458 )( + T1 238 ) ) )
(or ( <= ( + T1 93 ) T5 ) ( <= ( + T5 79 ) T1 ) )
(or ( <= ( + T1 100 )  ( + T5 79 ) ) ( <= ( + T5 93 )( + T1 93 ) ) )
(or ( <= ( + T1 113 )  ( + T5 93 ) ) ( <= ( + T5 109 )( + T1 100 ) ) )
(or ( <= ( + T1 148 )  ( + T5 109 ) ) ( <= ( + T5 133 )( + T1 113 ) ) )
(or ( <= ( + T1 238 )  ( + T5 133 ) ) ( <= ( + T5 184 )( + T1 148 ) ) )
(or ( <= ( + T1 282 )  ( + T5 184 ) ) ( <= ( + T5 283 )( + T1 238 ) ) )
(or ( <= ( + T1 93 ) T6 ) ( <= ( + T6 90 ) T1 ) )
(or ( <= ( + T1 100 )  ( + T6 90 ) ) ( <= ( + T6 133 )( + T1 93 ) ) )
(or ( <= ( + T1 113 )  ( + T6 133 ) ) ( <= ( + T6 138 )( + T1 100 ) ) )
(or ( <= ( + T1 148 )  ( + T6 138 ) ) ( <= ( + T6 193 )( + T1 113 ) ) )
(or ( <= ( + T1 238 )  ( + T6 193 ) ) ( <= ( + T6 222 )( + T1 148 ) ) )
(or ( <= ( + T1 282 )  ( + T6 222 ) ) ( <= ( + T6 268 )( + T1 238 ) ) )
(or ( <= ( + T1 93 ) T7 ) ( <= ( + T7 98 ) T1 ) )
(or ( <= ( + T1 100 )  ( + T7 98 ) ) ( <= ( + T7 188 )( + T1 93 ) ) )
(or ( <= ( + T1 113 )  ( + T7 188 ) ) ( <= ( + T7 191 )( + T1 100 ) ) )
(or ( <= ( + T1 148 )  ( + T7 191 ) ) ( <= ( + T7 285 )( + T1 113 ) ) )
(or ( <= ( + T1 238 )  ( + T7 285 ) ) ( <= ( + T7 304 )( + T1 148 ) ) )
(or ( <= ( + T1 282 )  ( + T7 304 ) ) ( <= ( + T7 361 )( + T1 238 ) ) )
(or ( <= ( + T1 93 ) T8 ) ( <= ( + T8 80 ) T1 ) )
(or ( <= ( + T1 100 )  ( + T8 80 ) ) ( <= ( + T8 148 )( + T1 93 ) ) )
(or ( <= ( + T1 113 )  ( + T8 148 ) ) ( <= ( + T8 202 )( + T1 100 ) ) )
(or ( <= ( + T1 148 )  ( + T8 202 ) ) ( <= ( + T8 298 )( + T1 113 ) ) )
(or ( <= ( + T1 238 )  ( + T8 298 ) ) ( <= ( + T8 310 )( + T1 148 ) ) )
(or ( <= ( + T1 282 )  ( + T8 310 ) ) ( <= ( + T8 397 )( + T1 238 ) ) )
(or ( <= ( + T2 61 ) T3 ) ( <= ( + T3 50 ) T2 ) )
(or ( <= ( + T2 67 )  ( + T3 50 ) ) ( <= ( + T3 96 )( + T2 61 ) ) )
(or ( <= ( + T2 112 )  ( + T3 96 ) ) ( <= ( + T3 113 )( + T2 67 ) ) )
(or ( <= ( + T2 190 )  ( + T3 113 ) ) ( <= ( + T3 158 )( + T2 112 ) ) )
(or ( <= ( + T2 245 )  ( + T3 158 ) ) ( <= ( + T3 192 )( + T2 190 ) ) )
(or ( <= ( + T2 279 )  ( + T3 192 ) ) ( <= ( + T3 256 )( + T2 245 ) ) )
(or ( <= ( + T2 61 ) T4 ) ( <= ( + T4 85 ) T2 ) )
(or ( <= ( + T2 67 )  ( + T4 85 ) ) ( <= ( + T4 165 )( + T2 61 ) ) )
(or ( <= ( + T2 112 )  ( + T4 165 ) ) ( <= ( + T4 256 )( + T2 67 ) ) )
(or ( <= ( + T2 190 )  ( + T4 256 ) ) ( <= ( + T4 272 )( + T2 112 ) ) )
(or ( <= ( + T2 245 )  ( + T4 272 ) ) ( <= ( + T4 365 )( + T2 190 ) ) )
(or ( <= ( + T2 279 )  ( + T4 365 ) ) ( <= ( + T4 458 )( + T2 245 ) ) )
(or ( <= ( + T2 61 ) T5 ) ( <= ( + T5 79 ) T2 ) )
(or ( <= ( + T2 67 )  ( + T5 79 ) ) ( <= ( + T5 93 )( + T2 61 ) ) )
(or ( <= ( + T2 112 )  ( + T5 93 ) ) ( <= ( + T5 109 )( + T2 67 ) ) )
(or ( <= ( + T2 190 )  ( + T5 109 ) ) ( <= ( + T5 133 )( + T2 112 ) ) )
(or ( <= ( + T2 245 )  ( + T5 133 ) ) ( <= ( + T5 184 )( + T2 190 ) ) )
(or ( <= ( + T2 279 )  ( + T5 184 ) ) ( <= ( + T5 283 )( + T2 245 ) ) )
(or ( <= ( + T2 61 ) T6 ) ( <= ( + T6 90 ) T2 ) )
(or ( <= ( + T2 67 )  ( + T6 90 ) ) ( <= ( + T6 133 )( + T2 61 ) ) )
(or ( <= ( + T2 112 )  ( + T6 133 ) ) ( <= ( + T6 138 )( + T2 67 ) ) )
(or ( <= ( + T2 190 )  ( + T6 138 ) ) ( <= ( + T6 193 )( + T2 112 ) ) )
(or ( <= ( + T2 245 )  ( + T6 193 ) ) ( <= ( + T6 222 )( + T2 190 ) ) )
(or ( <= ( + T2 279 )  ( + T6 222 ) ) ( <= ( + T6 268 )( + T2 245 ) ) )
(or ( <= ( + T2 61 ) T7 ) ( <= ( + T7 98 ) T2 ) )
(or ( <= ( + T2 67 )  ( + T7 98 ) ) ( <= ( + T7 188 )( + T2 61 ) ) )
(or ( <= ( + T2 112 )  ( + T7 188 ) ) ( <= ( + T7 191 )( + T2 67 ) ) )
(or ( <= ( + T2 190 )  ( + T7 191 ) ) ( <= ( + T7 285 )( + T2 112 ) ) )
(or ( <= ( + T2 245 )  ( + T7 285 ) ) ( <= ( + T7 304 )( + T2 190 ) ) )
(or ( <= ( + T2 279 )  ( + T7 304 ) ) ( <= ( + T7 361 )( + T2 245 ) ) )
(or ( <= ( + T2 61 ) T8 ) ( <= ( + T8 80 ) T2 ) )
(or ( <= ( + T2 67 )  ( + T8 80 ) ) ( <= ( + T8 148 )( + T2 61 ) ) )
(or ( <= ( + T2 112 )  ( + T8 148 ) ) ( <= ( + T8 202 )( + T2 67 ) ) )
(or ( <= ( + T2 190 )  ( + T8 202 ) ) ( <= ( + T8 298 )( + T2 112 ) ) )
(or ( <= ( + T2 245 )  ( + T8 298 ) ) ( <= ( + T8 310 )( + T2 190 ) ) )
(or ( <= ( + T2 279 )  ( + T8 310 ) ) ( <= ( + T8 397 )( + T2 245 ) ) )
(or ( <= ( + T3 50 ) T4 ) ( <= ( + T4 85 ) T3 ) )
(or ( <= ( + T3 96 )  ( + T4 85 ) ) ( <= ( + T4 165 )( + T3 50 ) ) )
(or ( <= ( + T3 113 )  ( + T4 165 ) ) ( <= ( + T4 256 )( + T3 96 ) ) )
(or ( <= ( + T3 158 )  ( + T4 256 ) ) ( <= ( + T4 272 )( + T3 113 ) ) )
(or ( <= ( + T3 192 )  ( + T4 272 ) ) ( <= ( + T4 365 )( + T3 158 ) ) )
(or ( <= ( + T3 256 )  ( + T4 365 ) ) ( <= ( + T4 458 )( + T3 192 ) ) )
(or ( <= ( + T3 50 ) T5 ) ( <= ( + T5 79 ) T3 ) )
(or ( <= ( + T3 96 )  ( + T5 79 ) ) ( <= ( + T5 93 )( + T3 50 ) ) )
(or ( <= ( + T3 113 )  ( + T5 93 ) ) ( <= ( + T5 109 )( + T3 96 ) ) )
(or ( <= ( + T3 158 )  ( + T5 109 ) ) ( <= ( + T5 133 )( + T3 113 ) ) )
(or ( <= ( + T3 192 )  ( + T5 133 ) ) ( <= ( + T5 184 )( + T3 158 ) ) )
(or ( <= ( + T3 256 )  ( + T5 184 ) ) ( <= ( + T5 283 )( + T3 192 ) ) )
(or ( <= ( + T3 50 ) T6 ) ( <= ( + T6 90 ) T3 ) )
(or ( <= ( + T3 96 )  ( + T6 90 ) ) ( <= ( + T6 133 )( + T3 50 ) ) )
(or ( <= ( + T3 113 )  ( + T6 133 ) ) ( <= ( + T6 138 )( + T3 96 ) ) )
(or ( <= ( + T3 158 )  ( + T6 138 ) ) ( <= ( + T6 193 )( + T3 113 ) ) )
(or ( <= ( + T3 192 )  ( + T6 193 ) ) ( <= ( + T6 222 )( + T3 158 ) ) )
(or ( <= ( + T3 256 )  ( + T6 222 ) ) ( <= ( + T6 268 )( + T3 192 ) ) )
(or ( <= ( + T3 50 ) T7 ) ( <= ( + T7 98 ) T3 ) )
(or ( <= ( + T3 96 )  ( + T7 98 ) ) ( <= ( + T7 188 )( + T3 50 ) ) )
(or ( <= ( + T3 113 )  ( + T7 188 ) ) ( <= ( + T7 191 )( + T3 96 ) ) )
(or ( <= ( + T3 158 )  ( + T7 191 ) ) ( <= ( + T7 285 )( + T3 113 ) ) )
(or ( <= ( + T3 192 )  ( + T7 285 ) ) ( <= ( + T7 304 )( + T3 158 ) ) )
(or ( <= ( + T3 256 )  ( + T7 304 ) ) ( <= ( + T7 361 )( + T3 192 ) ) )
(or ( <= ( + T3 50 ) T8 ) ( <= ( + T8 80 ) T3 ) )
(or ( <= ( + T3 96 )  ( + T8 80 ) ) ( <= ( + T8 148 )( + T3 50 ) ) )
(or ( <= ( + T3 113 )  ( + T8 148 ) ) ( <= ( + T8 202 )( + T3 96 ) ) )
(or ( <= ( + T3 158 )  ( + T8 202 ) ) ( <= ( + T8 298 )( + T3 113 ) ) )
(or ( <= ( + T3 192 )  ( + T8 298 ) ) ( <= ( + T8 310 )( + T3 158 ) ) )
(or ( <= ( + T3 256 )  ( + T8 310 ) ) ( <= ( + T8 397 )( + T3 192 ) ) )
(or ( <= ( + T4 85 ) T5 ) ( <= ( + T5 79 ) T4 ) )
(or ( <= ( + T4 165 )  ( + T5 79 ) ) ( <= ( + T5 93 )( + T4 85 ) ) )
(or ( <= ( + T4 256 )  ( + T5 93 ) ) ( <= ( + T5 109 )( + T4 165 ) ) )
(or ( <= ( + T4 272 )  ( + T5 109 ) ) ( <= ( + T5 133 )( + T4 256 ) ) )
(or ( <= ( + T4 365 )  ( + T5 133 ) ) ( <= ( + T5 184 )( + T4 272 ) ) )
(or ( <= ( + T4 458 )  ( + T5 184 ) ) ( <= ( + T5 283 )( + T4 365 ) ) )
(or ( <= ( + T4 85 ) T6 ) ( <= ( + T6 90 ) T4 ) )
(or ( <= ( + T4 165 )  ( + T6 90 ) ) ( <= ( + T6 133 )( + T4 85 ) ) )
(or ( <= ( + T4 256 )  ( + T6 133 ) ) ( <= ( + T6 138 )( + T4 165 ) ) )
(or ( <= ( + T4 272 )  ( + T6 138 ) ) ( <= ( + T6 193 )( + T4 256 ) ) )
(or ( <= ( + T4 365 )  ( + T6 193 ) ) ( <= ( + T6 222 )( + T4 272 ) ) )
(or ( <= ( + T4 458 )  ( + T6 222 ) ) ( <= ( + T6 268 )( + T4 365 ) ) )
(or ( <= ( + T4 85 ) T7 ) ( <= ( + T7 98 ) T4 ) )
(or ( <= ( + T4 165 )  ( + T7 98 ) ) ( <= ( + T7 188 )( + T4 85 ) ) )
(or ( <= ( + T4 256 )  ( + T7 188 ) ) ( <= ( + T7 191 )( + T4 165 ) ) )
(or ( <= ( + T4 272 )  ( + T7 191 ) ) ( <= ( + T7 285 )( + T4 256 ) ) )
(or ( <= ( + T4 365 )  ( + T7 285 ) ) ( <= ( + T7 304 )( + T4 272 ) ) )
(or ( <= ( + T4 458 )  ( + T7 304 ) ) ( <= ( + T7 361 )( + T4 365 ) ) )
(or ( <= ( + T4 85 ) T8 ) ( <= ( + T8 80 ) T4 ) )
(or ( <= ( + T4 165 )  ( + T8 80 ) ) ( <= ( + T8 148 )( + T4 85 ) ) )
(or ( <= ( + T4 256 )  ( + T8 148 ) ) ( <= ( + T8 202 )( + T4 165 ) ) )
(or ( <= ( + T4 272 )  ( + T8 202 ) ) ( <= ( + T8 298 )( + T4 256 ) ) )
(or ( <= ( + T4 365 )  ( + T8 298 ) ) ( <= ( + T8 310 )( + T4 272 ) ) )
(or ( <= ( + T4 458 )  ( + T8 310 ) ) ( <= ( + T8 397 )( + T4 365 ) ) )
(or ( <= ( + T5 79 ) T6 ) ( <= ( + T6 90 ) T5 ) )
(or ( <= ( + T5 93 )  ( + T6 90 ) ) ( <= ( + T6 133 )( + T5 79 ) ) )
(or ( <= ( + T5 109 )  ( + T6 133 ) ) ( <= ( + T6 138 )( + T5 93 ) ) )
(or ( <= ( + T5 133 )  ( + T6 138 ) ) ( <= ( + T6 193 )( + T5 109 ) ) )
(or ( <= ( + T5 184 )  ( + T6 193 ) ) ( <= ( + T6 222 )( + T5 133 ) ) )
(or ( <= ( + T5 283 )  ( + T6 222 ) ) ( <= ( + T6 268 )( + T5 184 ) ) )
(or ( <= ( + T5 79 ) T7 ) ( <= ( + T7 98 ) T5 ) )
(or ( <= ( + T5 93 )  ( + T7 98 ) ) ( <= ( + T7 188 )( + T5 79 ) ) )
(or ( <= ( + T5 109 )  ( + T7 188 ) ) ( <= ( + T7 191 )( + T5 93 ) ) )
(or ( <= ( + T5 133 )  ( + T7 191 ) ) ( <= ( + T7 285 )( + T5 109 ) ) )
(or ( <= ( + T5 184 )  ( + T7 285 ) ) ( <= ( + T7 304 )( + T5 133 ) ) )
(or ( <= ( + T5 283 )  ( + T7 304 ) ) ( <= ( + T7 361 )( + T5 184 ) ) )
(or ( <= ( + T5 79 ) T8 ) ( <= ( + T8 80 ) T5 ) )
(or ( <= ( + T5 93 )  ( + T8 80 ) ) ( <= ( + T8 148 )( + T5 79 ) ) )
(or ( <= ( + T5 109 )  ( + T8 148 ) ) ( <= ( + T8 202 )( + T5 93 ) ) )
(or ( <= ( + T5 133 )  ( + T8 202 ) ) ( <= ( + T8 298 )( + T5 109 ) ) )
(or ( <= ( + T5 184 )  ( + T8 298 ) ) ( <= ( + T8 310 )( + T5 133 ) ) )
(or ( <= ( + T5 283 )  ( + T8 310 ) ) ( <= ( + T8 397 )( + T5 184 ) ) )
(or ( <= ( + T6 90 ) T7 ) ( <= ( + T7 98 ) T6 ) )
(or ( <= ( + T6 133 )  ( + T7 98 ) ) ( <= ( + T7 188 )( + T6 90 ) ) )
(or ( <= ( + T6 138 )  ( + T7 188 ) ) ( <= ( + T7 191 )( + T6 133 ) ) )
(or ( <= ( + T6 193 )  ( + T7 191 ) ) ( <= ( + T7 285 )( + T6 138 ) ) )
(or ( <= ( + T6 222 )  ( + T7 285 ) ) ( <= ( + T7 304 )( + T6 193 ) ) )
(or ( <= ( + T6 268 )  ( + T7 304 ) ) ( <= ( + T7 361 )( + T6 222 ) ) )
(or ( <= ( + T6 90 ) T8 ) ( <= ( + T8 80 ) T6 ) )
(or ( <= ( + T6 133 )  ( + T8 80 ) ) ( <= ( + T8 148 )( + T6 90 ) ) )
(or ( <= ( + T6 138 )  ( + T8 148 ) ) ( <= ( + T8 202 )( + T6 133 ) ) )
(or ( <= ( + T6 193 )  ( + T8 202 ) ) ( <= ( + T8 298 )( + T6 138 ) ) )
(or ( <= ( + T6 222 )  ( + T8 298 ) ) ( <= ( + T8 310 )( + T6 193 ) ) )
(or ( <= ( + T6 268 )  ( + T8 310 ) ) ( <= ( + T8 397 )( + T6 222 ) ) )
(or ( <= ( + T7 98 ) T8 ) ( <= ( + T8 80 ) T7 ) )
(or ( <= ( + T7 188 )  ( + T8 80 ) ) ( <= ( + T8 148 )( + T7 98 ) ) )
(or ( <= ( + T7 191 )  ( + T8 148 ) ) ( <= ( + T8 202 )( + T7 188 ) ) )
(or ( <= ( + T7 285 )  ( + T8 202 ) ) ( <= ( + T8 298 )( + T7 191 ) ) )
(or ( <= ( + T7 304 )  ( + T8 298 ) ) ( <= ( + T8 310 )( + T7 285 ) ) )
(or ( <= ( + T7 361 )  ( + T8 310 ) ) ( <= ( + T8 397 )( + T7 304 ) ) )
( <= ( + T1 282 ) Z)
( <= ( + T2 279 ) Z)
( <= ( + T3 256 ) Z)
( <= ( + T4 458 ) Z)
( <= ( + T5 283 ) Z)
( <= ( + T6 268 ) Z)
( <= ( + T7 361 ) Z)
( <= ( + T8 397 ) Z)
( >= T1 0 )
( >= T2 0 )
( >= T3 0 )
( >= T4 0 )
( >= T5 0 )
( >= T6 0 )
( >= T7 0 )
( >= T8 0 )
) )
(minimize Z)
(check-sat)